c turning on binary mode checking
c parsing input formula with 259840 variables and 1039924 clauses
c finished parsing, read 42914194 bytes from proof file
c detected empty clause; start verification via backward checking
c 77799 of 1039924 clauses in core                            
c 140926 of 834235 lemmas in core using 2083975 resolution steps
c 0 RAT lemmas in core; 20767 redundant literals in core lemmas
s VERIFIED
c verification time: 9.904 seconds
